num_wann        = 32
num_bands       = 38
num_iter        = 50

!here we exclude all bands below the O 2p bands in energy
exclude_bands : 1-20

!===========  additional input for symmetry-adapted mode
site_symmetry = .true.
symmetrize_eps=  1d-4
!===========

!dis_win_max       = 18.4525
!dis_win_min       = 4.4525
!dis_froz_max      = 12.4525

!guiding_centres = T

begin atoms_frac
O 0.0 0.0 0.0
O 0.0 0.5 0.5
O 0.5 0.0 0.5
O 0.5 0.5 0.0
Ni 0.5 0.5 0.5
Ni 0.0 0.0 0.5
Ni 0.0 0.5 0.0
Ni 0.5 0.0 0.0
end atoms_frac

begin kpoint_path
W 0.250 0.750 0.500 L 0.500 0.500 0.500
L 0.500 0.500 0.500 G 0.000 0.000 0.000
G 0.000 0.000 0.000 X 0.000 0.500 0.500
X 0.000 0.500 0.500 W 0.250 0.750 0.500
W 0.250 0.750 0.500 K 0.375 0.750 0.375
end kpoint_path
bands_plot =T

!To plot the WF
wannier_plot = true
wannier_plot_supercell = 3
!wannier_plot_list = 2 
!restart = plot
write_hr = true
write_rmn = true
write_tb = true

begin projections
Ni:d
O:p
end projections

begin unit_cell_cart
bohr
7.893386 0.0 0.0
0.0 7.893386 0.0
0.0 0.0 7.893386
end unit_cell_cart

mp_grid : 4 4 4  

begin kpoints
  0.00000000  0.00000000  0.00000000 
  0.00000000  0.00000000  0.25000000 
  0.00000000  0.00000000  0.50000000 
  0.00000000  0.00000000  0.75000000 
  0.00000000  0.25000000  0.00000000 
  0.00000000  0.25000000  0.25000000 
  0.00000000  0.25000000  0.50000000 
  0.00000000  0.25000000  0.75000000 
  0.00000000  0.50000000  0.00000000 
  0.00000000  0.50000000  0.25000000 
  0.00000000  0.50000000  0.50000000 
  0.00000000  0.50000000  0.75000000 
  0.00000000  0.75000000  0.00000000 
  0.00000000  0.75000000  0.25000000 
  0.00000000  0.75000000  0.50000000 
  0.00000000  0.75000000  0.75000000 
  0.25000000  0.00000000  0.00000000 
  0.25000000  0.00000000  0.25000000 
  0.25000000  0.00000000  0.50000000 
  0.25000000  0.00000000  0.75000000 
  0.25000000  0.25000000  0.00000000 
  0.25000000  0.25000000  0.25000000 
  0.25000000  0.25000000  0.50000000 
  0.25000000  0.25000000  0.75000000 
  0.25000000  0.50000000  0.00000000 
  0.25000000  0.50000000  0.25000000 
  0.25000000  0.50000000  0.50000000 
  0.25000000  0.50000000  0.75000000 
  0.25000000  0.75000000  0.00000000 
  0.25000000  0.75000000  0.25000000 
  0.25000000  0.75000000  0.50000000 
  0.25000000  0.75000000  0.75000000 
  0.50000000  0.00000000  0.00000000 
  0.50000000  0.00000000  0.25000000 
  0.50000000  0.00000000  0.50000000 
  0.50000000  0.00000000  0.75000000 
  0.50000000  0.25000000  0.00000000 
  0.50000000  0.25000000  0.25000000 
  0.50000000  0.25000000  0.50000000 
  0.50000000  0.25000000  0.75000000 
  0.50000000  0.50000000  0.00000000 
  0.50000000  0.50000000  0.25000000 
  0.50000000  0.50000000  0.50000000 
  0.50000000  0.50000000  0.75000000 
  0.50000000  0.75000000  0.00000000 
  0.50000000  0.75000000  0.25000000 
  0.50000000  0.75000000  0.50000000 
  0.50000000  0.75000000  0.75000000 
  0.75000000  0.00000000  0.00000000 
  0.75000000  0.00000000  0.25000000 
  0.75000000  0.00000000  0.50000000 
  0.75000000  0.00000000  0.75000000 
  0.75000000  0.25000000  0.00000000 
  0.75000000  0.25000000  0.25000000 
  0.75000000  0.25000000  0.50000000 
  0.75000000  0.25000000  0.75000000 
  0.75000000  0.50000000  0.00000000 
  0.75000000  0.50000000  0.25000000 
  0.75000000  0.50000000  0.50000000 
  0.75000000  0.50000000  0.75000000 
  0.75000000  0.75000000  0.00000000 
  0.75000000  0.75000000  0.25000000 
  0.75000000  0.75000000  0.50000000 
  0.75000000  0.75000000  0.75000000 
end kpoints
