&inputpp 
   outdir = './'
   prefix = 'nio'
   seedname = 'NiO'
   spin_component = 'none'
   write_mmn = .true.
   write_amn = .true.
   write_unk = .true.
   write_dmn = .true.  ! additional input for symmetry-adapted mode
/
